p cnf 1270 3201
1 0
2 0
3 0
4 0
5 0
6 0
7 0
8 0
9 0
10 0
-11 0
-12 0
-13 0
-14 0
-15 0
-16 0
-17 0
-18 0
-19 0
-20 0
21 22 0
23 22 0
24 22 0
25 22 0
26 22 0
27 22 0
28 22 0
29 22 0
30 22 0
31 22 0
-32 0
-1 22 -33 0
1 -22 -33 0
33 -22 -1 0
1 22 33 0
-33 0
23 34 0
24 34 0
25 34 0
26 34 0
27 34 0
28 34 0
29 34 0
30 34 0
31 34 0
-35 0
-36 34 -37 0
36 -34 -37 0
37 -34 -36 0
36 34 37 0
-37 0
24 38 0
25 38 0
26 38 0
27 38 0
28 38 0
29 38 0
30 38 0
31 38 0
-39 0
-40 38 -41 0
40 -38 -41 0
41 -38 -40 0
40 38 41 0
-41 0
25 42 0
26 42 0
27 42 0
28 42 0
29 42 0
30 42 0
31 42 0
-43 0
-44 42 -45 0
44 -42 -45 0
45 -42 -44 0
44 42 45 0
-45 0
26 46 0
27 46 0
28 46 0
29 46 0
30 46 0
31 46 0
-47 0
-48 46 -49 0
48 -46 -49 0
49 -46 -48 0
48 46 49 0
-49 0
-50 46 -51 0
50 -46 -51 0
51 -46 -50 0
50 46 51 0
-51 0
-52 46 -53 0
52 -46 -53 0
53 -46 -52 0
52 46 53 0
-53 0
-54 46 -55 0
54 -46 -55 0
55 -46 -54 0
54 46 55 0
-55 0
-56 46 -57 0
56 -46 -57 0
57 -46 -56 0
56 46 57 0
-57 0
-58 46 -59 0
58 -46 -59 0
59 -46 -58 0
58 46 59 0
-59 0
60 61 0
62 61 0
63 61 0
64 61 0
65 61 0
66 61 0
67 61 0
68 61 0
69 61 0
70 61 0
71 61 0
-72 0
-2 61 -73 0
2 -61 -73 0
73 -61 -2 0
2 61 73 0
-73 0
62 74 0
63 74 0
64 74 0
65 74 0
66 74 0
67 74 0
68 74 0
69 74 0
70 74 0
71 74 0
-75 0
-76 74 -77 0
76 -74 -77 0
77 -74 -76 0
76 74 77 0
-77 0
63 78 0
64 78 0
65 78 0
66 78 0
67 78 0
68 78 0
69 78 0
70 78 0
71 78 0
-79 0
-80 78 -81 0
80 -78 -81 0
81 -78 -80 0
80 78 81 0
-81 0
64 82 0
65 82 0
66 82 0
67 82 0
68 82 0
69 82 0
70 82 0
71 82 0
-83 0
-84 82 -85 0
84 -82 -85 0
85 -82 -84 0
84 82 85 0
-85 0
65 86 0
66 86 0
67 86 0
68 86 0
69 86 0
70 86 0
71 86 0
-87 0
-88 86 -89 0
88 -86 -89 0
89 -86 -88 0
88 86 89 0
-89 0
66 90 0
67 90 0
68 90 0
69 90 0
70 90 0
71 90 0
-91 0
-92 90 -93 0
92 -90 -93 0
93 -90 -92 0
92 90 93 0
-93 0
-94 90 -95 0
94 -90 -95 0
95 -90 -94 0
94 90 95 0
-95 0
-96 90 -97 0
96 -90 -97 0
97 -90 -96 0
96 90 97 0
-97 0
-98 90 -99 0
98 -90 -99 0
99 -90 -98 0
98 90 99 0
-99 0
-100 90 -101 0
100 -90 -101 0
101 -90 -100 0
100 90 101 0
-101 0
-102 90 -103 0
102 -90 -103 0
103 -90 -102 0
102 90 103 0
-103 0
104 105 0
106 105 0
107 105 0
108 105 0
109 105 0
110 105 0
111 105 0
-112 0
-3 105 -113 0
3 -105 -113 0
113 -105 -3 0
3 105 113 0
-113 0
106 114 0
107 114 0
108 114 0
109 114 0
110 114 0
111 114 0
-115 0
-116 114 -117 0
116 -114 -117 0
117 -114 -116 0
116 114 117 0
-117 0
107 118 0
108 118 0
109 118 0
110 118 0
111 118 0
-119 0
-120 118 -121 0
120 -118 -121 0
121 -118 -120 0
120 118 121 0
-121 0
108 122 0
109 122 0
110 122 0
111 122 0
-123 0
-124 122 -125 0
124 -122 -125 0
125 -122 -124 0
124 122 125 0
-125 0
-126 122 -127 0
126 -122 -127 0
127 -122 -126 0
126 122 127 0
-127 0
-128 122 -129 0
128 -122 -129 0
129 -122 -128 0
128 122 129 0
-129 0
-130 122 -131 0
130 -122 -131 0
131 -122 -130 0
130 122 131 0
-131 0
132 133 0
134 133 0
135 133 0
136 133 0
137 133 0
138 133 0
139 133 0
140 133 0
141 133 0
142 133 0
-143 0
-4 133 -144 0
4 -133 -144 0
144 -133 -4 0
4 133 144 0
-144 0
134 145 0
135 145 0
136 145 0
137 145 0
138 145 0
139 145 0
140 145 0
141 145 0
142 145 0
-146 0
-147 145 -148 0
147 -145 -148 0
148 -145 -147 0
147 145 148 0
-148 0
135 149 0
136 149 0
137 149 0
138 149 0
139 149 0
140 149 0
141 149 0
142 149 0
-150 0
-151 149 -152 0
151 -149 -152 0
152 -149 -151 0
151 149 152 0
-152 0
136 153 0
137 153 0
138 153 0
139 153 0
140 153 0
141 153 0
142 153 0
-154 0
-155 153 -156 0
155 -153 -156 0
156 -153 -155 0
155 153 156 0
-156 0
137 157 0
138 157 0
139 157 0
140 157 0
141 157 0
142 157 0
-158 0
-159 157 -160 0
159 -157 -160 0
160 -157 -159 0
159 157 160 0
-160 0
138 161 0
139 161 0
140 161 0
141 161 0
142 161 0
-162 0
-163 161 -164 0
163 -161 -164 0
164 -161 -163 0
163 161 164 0
-164 0
-165 161 -166 0
165 -161 -166 0
166 -161 -165 0
165 161 166 0
-166 0
-167 161 -168 0
167 -161 -168 0
168 -161 -167 0
167 161 168 0
-168 0
-169 161 -170 0
169 -161 -170 0
170 -161 -169 0
169 161 170 0
-170 0
-171 161 -172 0
171 -161 -172 0
172 -161 -171 0
171 161 172 0
-172 0
173 174 0
175 174 0
176 174 0
177 174 0
178 174 0
179 174 0
180 174 0
181 174 0
182 174 0
183 174 0
-184 0
-5 174 -185 0
5 -174 -185 0
185 -174 -5 0
5 174 185 0
-185 0
175 186 0
176 186 0
177 186 0
178 186 0
179 186 0
180 186 0
181 186 0
182 186 0
183 186 0
-187 0
-188 186 -189 0
188 -186 -189 0
189 -186 -188 0
188 186 189 0
-189 0
176 190 0
177 190 0
178 190 0
179 190 0
180 190 0
181 190 0
182 190 0
183 190 0
-191 0
-192 190 -193 0
192 -190 -193 0
193 -190 -192 0
192 190 193 0
-193 0
177 194 0
178 194 0
179 194 0
180 194 0
181 194 0
182 194 0
183 194 0
-195 0
-196 194 -197 0
196 -194 -197 0
197 -194 -196 0
196 194 197 0
-197 0
178 198 0
179 198 0
180 198 0
181 198 0
182 198 0
183 198 0
-199 0
-200 198 -201 0
200 -198 -201 0
201 -198 -200 0
200 198 201 0
-201 0
-202 198 -203 0
202 -198 -203 0
203 -198 -202 0
202 198 203 0
-203 0
-204 198 -205 0
204 -198 -205 0
205 -198 -204 0
204 198 205 0
-205 0
-206 198 -207 0
206 -198 -207 0
207 -198 -206 0
206 198 207 0
-207 0
-208 198 -209 0
208 -198 -209 0
209 -198 -208 0
208 198 209 0
-209 0
-210 198 -211 0
210 -198 -211 0
211 -198 -210 0
210 198 211 0
-211 0
212 213 0
214 213 0
215 213 0
216 213 0
217 213 0
218 213 0
219 213 0
220 213 0
221 213 0
222 213 0
-223 0
-6 213 -224 0
6 -213 -224 0
224 -213 -6 0
6 213 224 0
-224 0
214 225 0
215 225 0
216 225 0
217 225 0
218 225 0
219 225 0
220 225 0
221 225 0
222 225 0
-226 0
-227 225 -228 0
227 -225 -228 0
228 -225 -227 0
227 225 228 0
-228 0
215 229 0
216 229 0
217 229 0
218 229 0
219 229 0
220 229 0
221 229 0
222 229 0
-230 0
-231 229 -232 0
231 -229 -232 0
232 -229 -231 0
231 229 232 0
-232 0
216 233 0
217 233 0
218 233 0
219 233 0
220 233 0
221 233 0
222 233 0
-234 0
-235 233 -236 0
235 -233 -236 0
236 -233 -235 0
235 233 236 0
-236 0
217 237 0
218 237 0
219 237 0
220 237 0
221 237 0
222 237 0
-238 0
-239 237 -240 0
239 -237 -240 0
240 -237 -239 0
239 237 240 0
-240 0
218 241 0
219 241 0
220 241 0
221 241 0
222 241 0
-242 0
-243 241 -244 0
243 -241 -244 0
244 -241 -243 0
243 241 244 0
-244 0
-245 241 -246 0
245 -241 -246 0
246 -241 -245 0
245 241 246 0
-246 0
-247 241 -248 0
247 -241 -248 0
248 -241 -247 0
247 241 248 0
-248 0
-249 241 -250 0
249 -241 -250 0
250 -241 -249 0
249 241 250 0
-250 0
-251 241 -252 0
251 -241 -252 0
252 -241 -251 0
251 241 252 0
-252 0
108 253 0
109 253 0
110 253 0
111 253 0
254 253 0
255 253 0
256 253 0
257 253 0
258 253 0
-259 0
-7 253 -260 0
7 -253 -260 0
260 -253 -7 0
7 253 260 0
-260 0
108 261 0
109 261 0
110 261 0
111 261 0
255 261 0
256 261 0
257 261 0
258 261 0
-262 0
-263 261 -264 0
263 -261 -264 0
264 -261 -263 0
263 261 264 0
-264 0
108 265 0
109 265 0
110 265 0
111 265 0
256 265 0
257 265 0
258 265 0
-266 0
-267 265 -268 0
267 -265 -268 0
268 -265 -267 0
267 265 268 0
-268 0
108 269 0
109 269 0
110 269 0
111 269 0
257 269 0
258 269 0
-270 0
-271 269 -272 0
271 -269 -272 0
272 -269 -271 0
271 269 272 0
-272 0
108 273 0
109 273 0
110 273 0
111 273 0
258 273 0
-274 0
-275 273 -276 0
275 -273 -276 0
276 -273 -275 0
275 273 276 0
-276 0
26 277 0
27 277 0
28 277 0
29 277 0
30 277 0
31 277 0
278 277 0
279 277 0
280 277 0
281 277 0
282 277 0
-283 0
-8 277 -284 0
8 -277 -284 0
284 -277 -8 0
8 277 284 0
-284 0
26 285 0
27 285 0
28 285 0
29 285 0
30 285 0
31 285 0
279 285 0
280 285 0
281 285 0
282 285 0
-286 0
-287 285 -288 0
287 -285 -288 0
288 -285 -287 0
287 285 288 0
-288 0
26 289 0
27 289 0
28 289 0
29 289 0
30 289 0
31 289 0
280 289 0
281 289 0
282 289 0
-290 0
-291 289 -292 0
291 -289 -292 0
292 -289 -291 0
291 289 292 0
-292 0
26 293 0
27 293 0
28 293 0
29 293 0
30 293 0
31 293 0
281 293 0
282 293 0
-294 0
-295 293 -296 0
295 -293 -296 0
296 -293 -295 0
295 293 296 0
-296 0
26 297 0
27 297 0
28 297 0
29 297 0
30 297 0
31 297 0
282 297 0
-298 0
-299 297 -300 0
299 -297 -300 0
300 -297 -299 0
299 297 300 0
-300 0
301 302 0
303 302 0
304 302 0
305 302 0
306 302 0
307 302 0
-308 0
-9 302 -309 0
9 -302 -309 0
309 -302 -9 0
9 302 309 0
-309 0
303 310 0
304 310 0
305 310 0
306 310 0
307 310 0
-311 0
-312 310 -313 0
312 -310 -313 0
313 -310 -312 0
312 310 313 0
-313 0
304 314 0
305 314 0
306 314 0
307 314 0
-315 0
-316 314 -317 0
316 -314 -317 0
317 -314 -316 0
316 314 317 0
-317 0
305 318 0
306 318 0
307 318 0
-305 -306 -307 -318 0
-319 318 -320 0
319 -318 -320 0
320 -318 -319 0
319 318 320 0
-320 0
306 321 0
307 321 0
-306 -307 -321 0
-322 321 -323 0
322 -321 -323 0
323 -321 -322 0
322 321 323 0
-323 0
-324 321 -325 0
324 -321 -325 0
325 -321 -324 0
324 321 325 0
-325 0
178 326 0
179 326 0
180 326 0
181 326 0
182 326 0
183 326 0
327 326 0
328 326 0
329 326 0
-330 0
-10 326 -331 0
10 -326 -331 0
331 -326 -10 0
10 326 331 0
-331 0
178 332 0
179 332 0
180 332 0
181 332 0
182 332 0
183 332 0
328 332 0
329 332 0
-333 0
-334 332 -335 0
334 -332 -335 0
335 -332 -334 0
334 332 335 0
-335 0
178 336 0
179 336 0
180 336 0
181 336 0
182 336 0
183 336 0
329 336 0
-337 0
-338 336 -339 0
338 -336 -339 0
339 -336 -338 0
338 336 339 0
-339 0
340 341 0
342 341 0
343 341 0
344 341 0
345 341 0
346 341 0
347 341 0
348 341 0
349 341 0
350 341 0
-351 0
-11 341 -352 0
11 -341 -352 0
352 -341 -11 0
11 341 352 0
-352 0
342 353 0
343 353 0
344 353 0
345 353 0
346 353 0
347 353 0
348 353 0
349 353 0
350 353 0
-354 0
-355 353 -356 0
355 -353 -356 0
356 -353 -355 0
355 353 356 0
-356 0
343 357 0
344 357 0
345 357 0
346 357 0
347 357 0
348 357 0
349 357 0
350 357 0
-358 0
-359 357 -360 0
359 -357 -360 0
360 -357 -359 0
359 357 360 0
-360 0
344 361 0
345 361 0
346 361 0
347 361 0
348 361 0
349 361 0
350 361 0
-362 0
-363 361 -364 0
363 -361 -364 0
364 -361 -363 0
363 361 364 0
-364 0
345 365 0
346 365 0
347 365 0
348 365 0
349 365 0
350 365 0
-366 0
-367 365 -368 0
367 -365 -368 0
368 -365 -367 0
367 365 368 0
-368 0
-369 365 -370 0
369 -365 -370 0
370 -365 -369 0
369 365 370 0
-370 0
-371 365 -372 0
371 -365 -372 0
372 -365 -371 0
371 365 372 0
-372 0
-373 365 -374 0
373 -365 -374 0
374 -365 -373 0
373 365 374 0
-374 0
-375 365 -376 0
375 -365 -376 0
376 -365 -375 0
375 365 376 0
-376 0
-377 365 -378 0
377 -365 -378 0
378 -365 -377 0
377 365 378 0
-378 0
379 380 0
381 380 0
382 380 0
383 380 0
384 380 0
385 380 0
386 380 0
387 380 0
388 380 0
389 380 0
-390 0
-12 380 -391 0
12 -380 -391 0
391 -380 -12 0
12 380 391 0
-391 0
381 392 0
382 392 0
383 392 0
384 392 0
385 392 0
386 392 0
387 392 0
388 392 0
389 392 0
-393 0
-394 392 -395 0
394 -392 -395 0
395 -392 -394 0
394 392 395 0
-395 0
382 396 0
383 396 0
384 396 0
385 396 0
386 396 0
387 396 0
388 396 0
389 396 0
-397 0
-398 396 -399 0
398 -396 -399 0
399 -396 -398 0
398 396 399 0
-399 0
383 400 0
384 400 0
385 400 0
386 400 0
387 400 0
388 400 0
389 400 0
-401 0
-402 400 -403 0
402 -400 -403 0
403 -400 -402 0
402 400 403 0
-403 0
384 404 0
385 404 0
386 404 0
387 404 0
388 404 0
389 404 0
-405 0
-406 404 -407 0
406 -404 -407 0
407 -404 -406 0
406 404 407 0
-407 0
385 408 0
386 408 0
387 408 0
388 408 0
389 408 0
-409 0
-410 408 -411 0
410 -408 -411 0
411 -408 -410 0
410 408 411 0
-411 0
-412 408 -413 0
412 -408 -413 0
413 -408 -412 0
412 408 413 0
-413 0
-414 408 -415 0
414 -408 -415 0
415 -408 -414 0
414 408 415 0
-415 0
-416 408 -417 0
416 -408 -417 0
417 -408 -416 0
416 408 417 0
-417 0
-418 408 -419 0
418 -408 -419 0
419 -408 -418 0
418 408 419 0
-419 0
420 421 0
422 421 0
423 421 0
424 421 0
425 421 0
426 421 0
427 421 0
428 421 0
429 421 0
430 421 0
431 421 0
-432 0
-13 421 -433 0
13 -421 -433 0
433 -421 -13 0
13 421 433 0
-433 0
422 434 0
423 434 0
424 434 0
425 434 0
426 434 0
427 434 0
428 434 0
429 434 0
430 434 0
431 434 0
-435 0
-436 434 -437 0
436 -434 -437 0
437 -434 -436 0
436 434 437 0
-437 0
423 438 0
424 438 0
425 438 0
426 438 0
427 438 0
428 438 0
429 438 0
430 438 0
431 438 0
-439 0
-440 438 -441 0
440 -438 -441 0
441 -438 -440 0
440 438 441 0
-441 0
424 442 0
425 442 0
426 442 0
427 442 0
428 442 0
429 442 0
430 442 0
431 442 0
-443 0
-444 442 -445 0
444 -442 -445 0
445 -442 -444 0
444 442 445 0
-445 0
425 446 0
426 446 0
427 446 0
428 446 0
429 446 0
430 446 0
431 446 0
-447 0
-448 446 -449 0
448 -446 -449 0
449 -446 -448 0
448 446 449 0
-449 0
426 450 0
427 450 0
428 450 0
429 450 0
430 450 0
431 450 0
-451 0
-452 450 -453 0
452 -450 -453 0
453 -450 -452 0
452 450 453 0
-453 0
-454 450 -455 0
454 -450 -455 0
455 -450 -454 0
454 450 455 0
-455 0
-456 450 -457 0
456 -450 -457 0
457 -450 -456 0
456 450 457 0
-457 0
-458 450 -459 0
458 -450 -459 0
459 -450 -458 0
458 450 459 0
-459 0
-460 450 -461 0
460 -450 -461 0
461 -450 -460 0
460 450 461 0
-461 0
-462 450 -463 0
462 -450 -463 0
463 -450 -462 0
462 450 463 0
-463 0
464 465 0
466 465 0
467 465 0
468 465 0
469 465 0
470 465 0
471 465 0
472 465 0
473 465 0
-474 0
-14 465 -475 0
14 -465 -475 0
475 -465 -14 0
14 465 475 0
-475 0
466 476 0
467 476 0
468 476 0
469 476 0
470 476 0
471 476 0
472 476 0
473 476 0
-477 0
-478 476 -479 0
478 -476 -479 0
479 -476 -478 0
478 476 479 0
-479 0
467 480 0
468 480 0
469 480 0
470 480 0
471 480 0
472 480 0
473 480 0
-481 0
-482 480 -483 0
482 -480 -483 0
483 -480 -482 0
482 480 483 0
-483 0
468 484 0
469 484 0
470 484 0
471 484 0
472 484 0
473 484 0
-485 0
-486 484 -487 0
486 -484 -487 0
487 -484 -486 0
486 484 487 0
-487 0
469 488 0
470 488 0
471 488 0
472 488 0
473 488 0
-489 0
-490 488 -491 0
490 -488 -491 0
491 -488 -490 0
490 488 491 0
-491 0
470 492 0
471 492 0
472 492 0
473 492 0
-493 0
-494 492 -495 0
494 -492 -495 0
495 -492 -494 0
494 492 495 0
-495 0
-496 492 -497 0
496 -492 -497 0
497 -492 -496 0
496 492 497 0
-497 0
-498 492 -499 0
498 -492 -499 0
499 -492 -498 0
498 492 499 0
-499 0
-500 492 -501 0
500 -492 -501 0
501 -492 -500 0
500 492 501 0
-501 0
502 503 0
504 503 0
505 503 0
506 503 0
507 503 0
508 503 0
509 503 0
510 503 0
-511 0
-15 503 -512 0
15 -503 -512 0
512 -503 -15 0
15 503 512 0
-512 0
504 513 0
505 513 0
506 513 0
507 513 0
508 513 0
509 513 0
510 513 0
-514 0
-515 513 -516 0
515 -513 -516 0
516 -513 -515 0
515 513 516 0
-516 0
505 517 0
506 517 0
507 517 0
508 517 0
509 517 0
510 517 0
-518 0
-519 517 -520 0
519 -517 -520 0
520 -517 -519 0
519 517 520 0
-520 0
506 521 0
507 521 0
508 521 0
509 521 0
510 521 0
-522 0
-523 521 -524 0
523 -521 -524 0
524 -521 -523 0
523 521 524 0
-524 0
507 525 0
508 525 0
509 525 0
510 525 0
-526 0
-527 525 -528 0
527 -525 -528 0
528 -525 -527 0
527 525 528 0
-528 0
508 529 0
509 529 0
510 529 0
-508 -509 -510 -529 0
-530 529 -531 0
530 -529 -531 0
531 -529 -530 0
530 529 531 0
-531 0
509 532 0
510 532 0
-509 -510 -532 0
-533 532 -534 0
533 -532 -534 0
534 -532 -533 0
533 532 534 0
-534 0
-535 532 -536 0
535 -532 -536 0
536 -532 -535 0
535 532 536 0
-536 0
537 538 0
539 538 0
540 538 0
541 538 0
542 538 0
543 538 0
544 538 0
545 538 0
546 538 0
-547 0
-16 538 -548 0
16 -538 -548 0
548 -538 -16 0
16 538 548 0
-548 0
539 549 0
540 549 0
541 549 0
542 549 0
543 549 0
544 549 0
545 549 0
546 549 0
-550 0
-551 549 -552 0
551 -549 -552 0
552 -549 -551 0
551 549 552 0
-552 0
540 553 0
541 553 0
542 553 0
543 553 0
544 553 0
545 553 0
546 553 0
-554 0
-555 553 -556 0
555 -553 -556 0
556 -553 -555 0
555 553 556 0
-556 0
541 557 0
542 557 0
543 557 0
544 557 0
545 557 0
546 557 0
-558 0
-559 557 -560 0
559 -557 -560 0
560 -557 -559 0
559 557 560 0
-560 0
542 561 0
543 561 0
544 561 0
545 561 0
546 561 0
-562 0
-563 561 -564 0
563 -561 -564 0
564 -561 -563 0
563 561 564 0
-564 0
-565 561 -566 0
565 -561 -566 0
566 -561 -565 0
565 561 566 0
-566 0
-567 561 -568 0
567 -561 -568 0
568 -561 -567 0
567 561 568 0
-568 0
-569 561 -570 0
569 -561 -570 0
570 -561 -569 0
569 561 570 0
-570 0
-571 561 -572 0
571 -561 -572 0
572 -561 -571 0
571 561 572 0
-572 0
573 574 0
575 574 0
576 574 0
577 574 0
578 574 0
579 574 0
580 574 0
581 574 0
582 574 0
583 574 0
584 574 0
-585 0
-17 574 -586 0
17 -574 -586 0
586 -574 -17 0
17 574 586 0
-586 0
575 587 0
576 587 0
577 587 0
578 587 0
579 587 0
580 587 0
581 587 0
582 587 0
583 587 0
584 587 0
-588 0
-589 587 -590 0
589 -587 -590 0
590 -587 -589 0
589 587 590 0
-590 0
576 591 0
577 591 0
578 591 0
579 591 0
580 591 0
581 591 0
582 591 0
583 591 0
584 591 0
-592 0
-593 591 -594 0
593 -591 -594 0
594 -591 -593 0
593 591 594 0
-594 0
577 595 0
578 595 0
579 595 0
580 595 0
581 595 0
582 595 0
583 595 0
584 595 0
-596 0
-597 595 -598 0
597 -595 -598 0
598 -595 -597 0
597 595 598 0
-598 0
578 599 0
579 599 0
580 599 0
581 599 0
582 599 0
583 599 0
584 599 0
-600 0
-601 599 -602 0
601 -599 -602 0
602 -599 -601 0
601 599 602 0
-602 0
579 603 0
580 603 0
581 603 0
582 603 0
583 603 0
584 603 0
-604 0
-605 603 -606 0
605 -603 -606 0
606 -603 -605 0
605 603 606 0
-606 0
580 607 0
581 607 0
582 607 0
583 607 0
584 607 0
-608 0
-609 607 -610 0
609 -607 -610 0
610 -607 -609 0
609 607 610 0
-610 0
-611 607 -612 0
611 -607 -612 0
612 -607 -611 0
611 607 612 0
-612 0
-613 607 -614 0
613 -607 -614 0
614 -607 -613 0
613 607 614 0
-614 0
-615 607 -616 0
615 -607 -616 0
616 -607 -615 0
615 607 616 0
-616 0
-617 607 -618 0
617 -607 -618 0
618 -607 -617 0
617 607 618 0
-618 0
619 620 0
621 620 0
622 620 0
623 620 0
624 620 0
625 620 0
626 620 0
627 620 0
628 620 0
-629 0
-18 620 -630 0
18 -620 -630 0
630 -620 -18 0
18 620 630 0
-630 0
621 631 0
622 631 0
623 631 0
624 631 0
625 631 0
626 631 0
627 631 0
628 631 0
-632 0
-633 631 -634 0
633 -631 -634 0
634 -631 -633 0
633 631 634 0
-634 0
622 635 0
623 635 0
624 635 0
625 635 0
626 635 0
627 635 0
628 635 0
-636 0
-637 635 -638 0
637 -635 -638 0
638 -635 -637 0
637 635 638 0
-638 0
623 639 0
624 639 0
625 639 0
626 639 0
627 639 0
628 639 0
-640 0
-641 639 -642 0
641 -639 -642 0
642 -639 -641 0
641 639 642 0
-642 0
-643 639 -644 0
643 -639 -644 0
644 -639 -643 0
643 639 644 0
-644 0
-645 639 -646 0
645 -639 -646 0
646 -639 -645 0
645 639 646 0
-646 0
-647 639 -648 0
647 -639 -648 0
648 -639 -647 0
647 639 648 0
-648 0
-649 639 -650 0
649 -639 -650 0
650 -639 -649 0
649 639 650 0
-650 0
-651 639 -652 0
651 -639 -652 0
652 -639 -651 0
651 639 652 0
-652 0
653 654 0
655 654 0
656 654 0
657 654 0
658 654 0
659 654 0
660 654 0
661 654 0
662 654 0
663 654 0
664 654 0
-665 0
-19 654 -666 0
19 -654 -666 0
666 -654 -19 0
19 654 666 0
-666 0
655 667 0
656 667 0
657 667 0
658 667 0
659 667 0
660 667 0
661 667 0
662 667 0
663 667 0
664 667 0
-668 0
-669 667 -670 0
669 -667 -670 0
670 -667 -669 0
669 667 670 0
-670 0
656 671 0
657 671 0
658 671 0
659 671 0
660 671 0
661 671 0
662 671 0
663 671 0
664 671 0
-672 0
-673 671 -674 0
673 -671 -674 0
674 -671 -673 0
673 671 674 0
-674 0
657 675 0
658 675 0
659 675 0
660 675 0
661 675 0
662 675 0
663 675 0
664 675 0
-676 0
-677 675 -678 0
677 -675 -678 0
678 -675 -677 0
677 675 678 0
-678 0
658 679 0
659 679 0
660 679 0
661 679 0
662 679 0
663 679 0
664 679 0
-680 0
-681 679 -682 0
681 -679 -682 0
682 -679 -681 0
681 679 682 0
-682 0
659 683 0
660 683 0
661 683 0
662 683 0
663 683 0
664 683 0
-684 0
-685 683 -686 0
685 -683 -686 0
686 -683 -685 0
685 683 686 0
-686 0
-687 683 -688 0
687 -683 -688 0
688 -683 -687 0
687 683 688 0
-688 0
-689 683 -690 0
689 -683 -690 0
690 -683 -689 0
689 683 690 0
-690 0
-691 683 -692 0
691 -683 -692 0
692 -683 -691 0
691 683 692 0
-692 0
-693 683 -694 0
693 -683 -694 0
694 -683 -693 0
693 683 694 0
-694 0
-695 683 -696 0
695 -683 -696 0
696 -683 -695 0
695 683 696 0
-696 0
697 698 0
699 698 0
700 698 0
701 698 0
702 698 0
703 698 0
704 698 0
705 698 0
706 698 0
707 698 0
-708 0
-20 698 -709 0
20 -698 -709 0
709 -698 -20 0
20 698 709 0
-709 0
699 710 0
700 710 0
701 710 0
702 710 0
703 710 0
704 710 0
705 710 0
706 710 0
707 710 0
-711 0
-712 710 -713 0
712 -710 -713 0
713 -710 -712 0
712 710 713 0
-713 0
700 714 0
701 714 0
702 714 0
703 714 0
704 714 0
705 714 0
706 714 0
707 714 0
-715 0
-716 714 -717 0
716 -714 -717 0
717 -714 -716 0
716 714 717 0
-717 0
701 718 0
702 718 0
703 718 0
704 718 0
705 718 0
706 718 0
707 718 0
-719 0
-720 718 -721 0
720 -718 -721 0
721 -718 -720 0
720 718 721 0
-721 0
702 722 0
703 722 0
704 722 0
705 722 0
706 722 0
707 722 0
-723 0
-724 722 -725 0
724 -722 -725 0
725 -722 -724 0
724 722 725 0
-725 0
-726 722 -727 0
726 -722 -727 0
727 -722 -726 0
726 722 727 0
-727 0
-728 722 -729 0
728 -722 -729 0
729 -722 -728 0
728 722 729 0
-729 0
-730 722 -731 0
730 -722 -731 0
731 -722 -730 0
730 722 731 0
-731 0
-732 722 -733 0
732 -722 -733 0
733 -722 -732 0
732 722 733 0
-733 0
-734 722 -735 0
734 -722 -735 0
735 -722 -734 0
734 722 735 0
-735 0
736 737 0
-738 737 0
-736 738 -737 0
21 -737 0
-21 737 0
739 740 0
-741 740 0
-739 741 -740 0
23 -740 0
-23 740 0
742 743 0
-744 743 0
-742 744 -743 0
24 -743 0
-24 743 0
745 746 0
746 -747 0
-745 747 -746 0
25 -746 0
-25 746 0
748 749 0
-750 749 0
-748 750 -749 0
26 -749 0
-26 749 0
751 752 0
752 -753 0
-751 753 -752 0
27 -752 0
-27 752 0
754 755 0
755 -756 0
-754 756 -755 0
28 -755 0
-28 755 0
757 758 0
758 -759 0
-757 759 -758 0
29 -758 0
-29 758 0
760 761 0
761 -762 0
-760 762 -761 0
30 -761 0
-30 761 0
763 764 0
-765 764 0
-763 765 -764 0
31 -764 0
-31 764 0
766 767 0
-768 767 0
-766 768 -767 0
60 -767 0
-60 767 0
769 770 0
-771 770 0
-769 771 -770 0
62 -770 0
-62 770 0
772 773 0
-774 773 0
-772 774 -773 0
63 -773 0
-63 773 0
775 776 0
-777 776 0
-775 777 -776 0
64 -776 0
-64 776 0
778 779 0
779 -780 0
-778 780 -779 0
65 -779 0
-65 779 0
781 782 0
782 -783 0
-781 783 -782 0
66 -782 0
-66 782 0
784 785 0
785 -786 0
-784 786 -785 0
67 -785 0
-67 785 0
787 788 0
-789 788 0
-787 789 -788 0
68 -788 0
-68 788 0
790 791 0
-792 791 0
-790 792 -791 0
69 -791 0
-69 791 0
793 794 0
-795 794 0
-793 795 -794 0
70 -794 0
-70 794 0
796 797 0
-798 797 0
-796 798 -797 0
71 -797 0
-71 797 0
799 800 0
-801 800 0
-799 801 -800 0
104 -800 0
-104 800 0
802 803 0
-804 803 0
-802 804 -803 0
106 -803 0
-106 803 0
805 806 0
-807 806 0
-805 807 -806 0
107 -806 0
-107 806 0
808 809 0
809 -810 0
-808 810 -809 0
108 -809 0
-108 809 0
811 812 0
-813 812 0
-811 813 -812 0
109 -812 0
-109 812 0
814 815 0
815 -816 0
-814 816 -815 0
110 -815 0
-110 815 0
817 818 0
818 -819 0
-817 819 -818 0
111 -818 0
-111 818 0
820 821 0
-822 821 0
-820 822 -821 0
132 -821 0
-132 821 0
823 824 0
-825 824 0
-823 825 -824 0
134 -824 0
-134 824 0
826 827 0
827 -828 0
-826 828 -827 0
135 -827 0
-135 827 0
829 830 0
-831 830 0
-829 831 -830 0
136 -830 0
-136 830 0
832 833 0
-834 833 0
-832 834 -833 0
137 -833 0
-137 833 0
835 836 0
-837 836 0
-835 837 -836 0
138 -836 0
-138 836 0
838 839 0
-840 839 0
-838 840 -839 0
139 -839 0
-139 839 0
841 842 0
-843 842 0
-841 843 -842 0
140 -842 0
-140 842 0
844 845 0
845 -846 0
-844 846 -845 0
141 -845 0
-141 845 0
847 848 0
848 -849 0
-847 849 -848 0
142 -848 0
-142 848 0
850 851 0
-852 851 0
-850 852 -851 0
173 -851 0
-173 851 0
853 854 0
-855 854 0
-853 855 -854 0
175 -854 0
-175 854 0
856 857 0
-858 857 0
-856 858 -857 0
176 -857 0
-176 857 0
859 860 0
860 -861 0
-859 861 -860 0
177 -860 0
-177 860 0
862 863 0
863 -864 0
-862 864 -863 0
178 -863 0
-178 863 0
865 866 0
-867 866 0
-865 867 -866 0
179 -866 0
-179 866 0
868 869 0
869 -870 0
-868 870 -869 0
180 -869 0
-180 869 0
871 872 0
-873 872 0
-871 873 -872 0
181 -872 0
-181 872 0
874 875 0
-876 875 0
-874 876 -875 0
182 -875 0
-182 875 0
877 878 0
-879 878 0
-877 879 -878 0
183 -878 0
-183 878 0
880 881 0
-882 881 0
-880 882 -881 0
212 -881 0
-212 881 0
883 884 0
-885 884 0
-883 885 -884 0
214 -884 0
-214 884 0
886 887 0
887 -888 0
-886 888 -887 0
215 -887 0
-215 887 0
889 890 0
890 -891 0
-889 891 -890 0
216 -890 0
-216 890 0
892 893 0
893 -894 0
-892 894 -893 0
217 -893 0
-217 893 0
895 896 0
-897 896 0
-895 897 -896 0
218 -896 0
-218 896 0
898 899 0
899 -900 0
-898 900 -899 0
219 -899 0
-219 899 0
901 902 0
-903 902 0
-901 903 -902 0
220 -902 0
-220 902 0
904 905 0
-906 905 0
-904 906 -905 0
221 -905 0
-221 905 0
907 908 0
-909 908 0
-907 909 -908 0
222 -908 0
-222 908 0
910 911 0
-912 911 0
-910 912 -911 0
254 -911 0
-254 911 0
913 914 0
914 -915 0
-913 915 -914 0
255 -914 0
-255 914 0
916 917 0
-918 917 0
-916 918 -917 0
256 -917 0
-256 917 0
919 920 0
-921 920 0
-919 921 -920 0
257 -920 0
-257 920 0
922 923 0
923 -924 0
-922 924 -923 0
258 -923 0
-258 923 0
925 926 0
926 -927 0
-925 927 -926 0
278 -926 0
-278 926 0
928 929 0
-930 929 0
-928 930 -929 0
279 -929 0
-279 929 0
931 932 0
932 -933 0
-931 933 -932 0
280 -932 0
-280 932 0
934 935 0
935 -936 0
-934 936 -935 0
281 -935 0
-281 935 0
937 938 0
938 -939 0
-937 939 -938 0
282 -938 0
-282 938 0
940 941 0
-942 941 0
-940 942 -941 0
301 -941 0
-301 941 0
943 944 0
-945 944 0
-943 945 -944 0
303 -944 0
-303 944 0
946 947 0
-948 947 0
-946 948 -947 0
304 -947 0
-304 947 0
949 950 0
-951 950 0
-949 951 -950 0
305 -950 0
-305 950 0
952 953 0
953 -954 0
-952 954 -953 0
306 -953 0
-306 953 0
955 956 0
-957 956 0
-955 957 -956 0
307 -956 0
-307 956 0
958 959 0
959 -960 0
-958 960 -959 0
327 -959 0
-327 959 0
961 962 0
-963 962 0
-961 963 -962 0
328 -962 0
-328 962 0
964 965 0
965 -966 0
-964 966 -965 0
329 -965 0
-329 965 0
967 968 0
968 -969 0
-967 969 -968 0
340 -968 0
-340 968 0
970 971 0
-972 971 0
-970 972 -971 0
342 -971 0
-342 971 0
973 974 0
974 -975 0
-973 975 -974 0
343 -974 0
-343 974 0
976 977 0
-978 977 0
-976 978 -977 0
344 -977 0
-344 977 0
979 980 0
-981 980 0
-979 981 -980 0
345 -980 0
-345 980 0
982 983 0
-984 983 0
-982 984 -983 0
346 -983 0
-346 983 0
985 986 0
986 -987 0
-985 987 -986 0
347 -986 0
-347 986 0
988 989 0
-990 989 0
-988 990 -989 0
348 -989 0
-348 989 0
991 992 0
-993 992 0
-991 993 -992 0
349 -992 0
-349 992 0
994 995 0
-996 995 0
-994 996 -995 0
350 -995 0
-350 995 0
997 998 0
998 -999 0
-997 999 -998 0
379 -998 0
-379 998 0
1000 1001 0
-1002 1001 0
-1000 1002 -1001 0
381 -1001 0
-381 1001 0
1003 1004 0
-1005 1004 0
-1003 1005 -1004 0
382 -1004 0
-382 1004 0
1006 1007 0
-1008 1007 0
-1006 1008 -1007 0
383 -1007 0
-383 1007 0
1009 1010 0
-1011 1010 0
-1009 1011 -1010 0
384 -1010 0
-384 1010 0
1012 1013 0
-1014 1013 0
-1012 1014 -1013 0
385 -1013 0
-385 1013 0
1015 1016 0
-1017 1016 0
-1015 1017 -1016 0
386 -1016 0
-386 1016 0
1018 1019 0
1019 -1020 0
-1018 1020 -1019 0
387 -1019 0
-387 1019 0
1021 1022 0
-1023 1022 0
-1021 1023 -1022 0
388 -1022 0
-388 1022 0
1024 1025 0
1025 -1026 0
-1024 1026 -1025 0
389 -1025 0
-389 1025 0
1027 1028 0
1028 -1029 0
-1027 1029 -1028 0
420 -1028 0
-420 1028 0
1030 1031 0
-1032 1031 0
-1030 1032 -1031 0
422 -1031 0
-422 1031 0
1033 1034 0
-1035 1034 0
-1033 1035 -1034 0
423 -1034 0
-423 1034 0
1036 1037 0
-1038 1037 0
-1036 1038 -1037 0
424 -1037 0
-424 1037 0
1039 1040 0
-1041 1040 0
-1039 1041 -1040 0
425 -1040 0
-425 1040 0
1042 1043 0
-1044 1043 0
-1042 1044 -1043 0
426 -1043 0
-426 1043 0
1045 1046 0
1046 -1047 0
-1045 1047 -1046 0
427 -1046 0
-427 1046 0
1048 1049 0
1049 -1050 0
-1048 1050 -1049 0
428 -1049 0
-428 1049 0
1051 1052 0
1052 -1053 0
-1051 1053 -1052 0
429 -1052 0
-429 1052 0
1054 1055 0
-1056 1055 0
-1054 1056 -1055 0
430 -1055 0
-430 1055 0
1057 1058 0
-1059 1058 0
-1057 1059 -1058 0
431 -1058 0
-431 1058 0
1060 1061 0
-1062 1061 0
-1060 1062 -1061 0
464 -1061 0
-464 1061 0
1063 1064 0
-1065 1064 0
-1063 1065 -1064 0
466 -1064 0
-466 1064 0
1066 1067 0
-1068 1067 0
-1066 1068 -1067 0
467 -1067 0
-467 1067 0
1069 1070 0
-1071 1070 0
-1069 1071 -1070 0
468 -1070 0
-468 1070 0
1072 1073 0
1073 -1074 0
-1072 1074 -1073 0
469 -1073 0
-469 1073 0
1075 1076 0
-1077 1076 0
-1075 1077 -1076 0
470 -1076 0
-470 1076 0
1078 1079 0
-1080 1079 0
-1078 1080 -1079 0
471 -1079 0
-471 1079 0
1081 1082 0
-1083 1082 0
-1081 1083 -1082 0
472 -1082 0
-472 1082 0
1084 1085 0
-1086 1085 0
-1084 1086 -1085 0
473 -1085 0
-473 1085 0
1087 1088 0
-1089 1088 0
-1087 1089 -1088 0
502 -1088 0
-502 1088 0
1090 1091 0
-1092 1091 0
-1090 1092 -1091 0
504 -1091 0
-504 1091 0
1093 1094 0
-1095 1094 0
-1093 1095 -1094 0
505 -1094 0
-505 1094 0
1096 1097 0
-1098 1097 0
-1096 1098 -1097 0
506 -1097 0
-506 1097 0
1099 1100 0
1100 -1101 0
-1099 1101 -1100 0
507 -1100 0
-507 1100 0
1102 1103 0
-1104 1103 0
-1102 1104 -1103 0
508 -1103 0
-508 1103 0
1105 1106 0
-1107 1106 0
-1105 1107 -1106 0
509 -1106 0
-509 1106 0
1108 1109 0
1109 -1110 0
-1108 1110 -1109 0
510 -1109 0
-510 1109 0
1111 1112 0
-1113 1112 0
-1111 1113 -1112 0
537 -1112 0
-537 1112 0
1114 1115 0
-1116 1115 0
-1114 1116 -1115 0
539 -1115 0
-539 1115 0
1117 1118 0
1118 -1119 0
-1117 1119 -1118 0
540 -1118 0
-540 1118 0
1120 1121 0
1121 -1122 0
-1120 1122 -1121 0
541 -1121 0
-541 1121 0
1123 1124 0
-1125 1124 0
-1123 1125 -1124 0
542 -1124 0
-542 1124 0
1126 1127 0
-1128 1127 0
-1126 1128 -1127 0
543 -1127 0
-543 1127 0
1129 1130 0
-1131 1130 0
-1129 1131 -1130 0
544 -1130 0
-544 1130 0
1132 1133 0
-1134 1133 0
-1132 1134 -1133 0
545 -1133 0
-545 1133 0
1135 1136 0
-1137 1136 0
-1135 1137 -1136 0
546 -1136 0
-546 1136 0
1138 1139 0
-1140 1139 0
-1138 1140 -1139 0
573 -1139 0
-573 1139 0
1141 1142 0
1142 -1143 0
-1141 1143 -1142 0
575 -1142 0
-575 1142 0
1144 1145 0
-1146 1145 0
-1144 1146 -1145 0
576 -1145 0
-576 1145 0
1147 1148 0
1148 -1149 0
-1147 1149 -1148 0
577 -1148 0
-577 1148 0
1150 1151 0
1151 -1152 0
-1150 1152 -1151 0
578 -1151 0
-578 1151 0
1153 1154 0
-1155 1154 0
-1153 1155 -1154 0
579 -1154 0
-579 1154 0
1156 1157 0
-1158 1157 0
-1156 1158 -1157 0
580 -1157 0
-580 1157 0
1159 1160 0
-1161 1160 0
-1159 1161 -1160 0
581 -1160 0
-581 1160 0
1162 1163 0
1163 -1164 0
-1162 1164 -1163 0
582 -1163 0
-582 1163 0
1165 1166 0
1166 -1167 0
-1165 1167 -1166 0
583 -1166 0
-583 1166 0
1168 1169 0
-1170 1169 0
-1168 1170 -1169 0
584 -1169 0
-584 1169 0
1171 1172 0
-1173 1172 0
-1171 1173 -1172 0
619 -1172 0
-619 1172 0
1174 1175 0
-1176 1175 0
-1174 1176 -1175 0
621 -1175 0
-621 1175 0
1177 1178 0
1178 -1179 0
-1177 1179 -1178 0
622 -1178 0
-622 1178 0
1180 1181 0
-1182 1181 0
-1180 1182 -1181 0
623 -1181 0
-623 1181 0
1183 1184 0
1184 -1185 0
-1183 1185 -1184 0
624 -1184 0
-624 1184 0
1186 1187 0
-1188 1187 0
-1186 1188 -1187 0
625 -1187 0
-625 1187 0
1189 1190 0
-1191 1190 0
-1189 1191 -1190 0
626 -1190 0
-626 1190 0
1192 1193 0
-1194 1193 0
-1192 1194 -1193 0
627 -1193 0
-627 1193 0
1195 1196 0
-1197 1196 0
-1195 1197 -1196 0
628 -1196 0
-628 1196 0
1198 1199 0
-1200 1199 0
-1198 1200 -1199 0
653 -1199 0
-653 1199 0
1201 1202 0
-1203 1202 0
-1201 1203 -1202 0
655 -1202 0
-655 1202 0
1204 1205 0
-1206 1205 0
-1204 1206 -1205 0
656 -1205 0
-656 1205 0
1207 1208 0
-1209 1208 0
-1207 1209 -1208 0
657 -1208 0
-657 1208 0
1210 1211 0
-1212 1211 0
-1210 1212 -1211 0
658 -1211 0
-658 1211 0
1213 1214 0
-1215 1214 0
-1213 1215 -1214 0
659 -1214 0
-659 1214 0
1216 1217 0
-1218 1217 0
-1216 1218 -1217 0
660 -1217 0
-660 1217 0
1219 1220 0
-1221 1220 0
-1219 1221 -1220 0
661 -1220 0
-661 1220 0
1222 1223 0
1223 -1224 0
-1222 1224 -1223 0
662 -1223 0
-662 1223 0
1225 1226 0
-1227 1226 0
-1225 1227 -1226 0
663 -1226 0
-663 1226 0
1228 1229 0
-1230 1229 0
-1228 1230 -1229 0
664 -1229 0
-664 1229 0
1231 1232 0
-1233 1232 0
-1231 1233 -1232 0
697 -1232 0
-697 1232 0
1234 1235 0
-1236 1235 0
-1234 1236 -1235 0
699 -1235 0
-699 1235 0
1237 1238 0
1238 -1239 0
-1237 1239 -1238 0
700 -1238 0
-700 1238 0
1240 1241 0
-1242 1241 0
-1240 1242 -1241 0
701 -1241 0
-701 1241 0
1243 1244 0
-1245 1244 0
-1243 1245 -1244 0
702 -1244 0
-702 1244 0
1246 1247 0
-1248 1247 0
-1246 1248 -1247 0
703 -1247 0
-703 1247 0
1249 1250 0
1250 -1251 0
-1249 1251 -1250 0
704 -1250 0
-704 1250 0
1252 1253 0
-1254 1253 0
-1252 1254 -1253 0
705 -1253 0
-705 1253 0
1255 1256 0
-1257 1256 0
-1255 1257 -1256 0
706 -1256 0
-706 1256 0
1258 1259 0
1259 -1260 0
-1258 1260 -1259 0
707 -1259 0
-707 1259 0
-736 0
-739 0
-742 0
745 0
-748 0
751 0
754 0
757 0
760 0
-763 0
-766 0
-769 0
-772 0
-775 0
778 0
781 0
784 0
-787 0
-790 0
-793 0
-796 0
-799 0
-802 0
-805 0
808 0
-811 0
814 0
817 0
-820 0
-823 0
826 0
-829 0
-832 0
-835 0
-838 0
-841 0
844 0
847 0
-850 0
-853 0
-856 0
859 0
862 0
-865 0
868 0
-871 0
-874 0
-877 0
-880 0
-883 0
886 0
889 0
892 0
-895 0
898 0
-901 0
-904 0
-907 0
-910 0
913 0
-916 0
-919 0
922 0
925 0
-928 0
931 0
934 0
937 0
-940 0
-943 0
-946 0
-949 0
952 0
-955 0
958 0
-961 0
964 0
967 0
-970 0
973 0
-976 0
-979 0
982 0
985 0
988 0
991 0
-994 0
997 0
-1000 0
-1003 0
-1006 0
1009 0
-1012 0
-1015 0
1018 0
-1021 0
1024 0
1027 0
1030 0
1033 0
1036 0
-1039 0
1042 0
1045 0
1048 0
1051 0
-1054 0
1057 0
-1060 0
1063 0
1066 0
1069 0
1072 0
-1075 0
1078 0
1081 0
-1084 0
-1087 0
-1090 0
1093 0
-1096 0
1099 0
-1102 0
-1105 0
1108 0
1111 0
1114 0
1117 0
1120 0
-1123 0
-1126 0
-1129 0
1132 0
-1135 0
-1138 0
1141 0
1144 0
1147 0
1150 0
-1153 0
1156 0
1159 0
1162 0
1165 0
1168 0
-1171 0
-1174 0
1177 0
-1180 0
1183 0
-1186 0
1189 0
-1192 0
-1195 0
1198 0
-1201 0
-1204 0
1207 0
1210 0
-1213 0
-1216 0
-1219 0
1222 0
-1225 0
-1228 0
-1231 0
1234 0
1237 0
-1240 0
-1243 0
1246 0
1249 0
-1252 0
-1255 0
1258 0
-1261 -1262 0
-1261 -738 0
741 -1261 0
-1261 -744 0
747 -1261 0
750 -1261 0
753 -1261 0
756 -1261 0
759 -1261 0
762 -1261 0
765 -1261 0
768 -1261 0
-1261 -771 0
-1261 -774 0
-1261 -777 0
780 -1261 0
783 -1261 0
786 -1261 0
789 -1261 0
792 -1261 0
795 -1261 0
798 -1261 0
-1261 -801 0
804 -1261 0
807 -1261 0
810 -1261 0
813 -1261 0
816 -1261 0
819 -1261 0
-1261 -822 0
-1261 -825 0
828 -1261 0
831 -1261 0
834 -1261 0
837 -1261 0
840 -1261 0
843 -1261 0
846 -1261 0
849 -1261 0
-1261 -852 0
-1261 -855 0
-1261 -858 0
861 -1261 0
864 -1261 0
867 -1261 0
870 -1261 0
873 -1261 0
876 -1261 0
879 -1261 0
882 -1261 0
885 -1261 0
888 -1261 0
891 -1261 0
894 -1261 0
897 -1261 0
900 -1261 0
903 -1261 0
906 -1261 0
909 -1261 0
912 -1261 0
915 -1261 0
918 -1261 0
921 -1261 0
924 -1261 0
927 -1261 0
930 -1261 0
933 -1261 0
936 -1261 0
939 -1261 0
942 -1261 0
-1261 -945 0
-1261 -948 0
-1261 -951 0
954 -1261 0
957 -1261 0
960 -1261 0
963 -1261 0
966 -1261 0
969 -1261 0
-1261 -972 0
975 -1261 0
-1261 -978 0
981 -1261 0
-1261 -984 0
987 -1261 0
-1261 -990 0
-1261 -993 0
996 -1261 0
999 -1261 0
-1261 -1002 0
-1261 -1005 0
-1261 -1008 0
-1261 -1011 0
-1261 -1014 0
1017 -1261 0
1020 -1261 0
-1261 -1023 0
1026 -1261 0
1029 -1261 0
-1261 -1032 0
-1261 -1035 0
-1261 -1038 0
-1261 -1041 0
-1261 -1044 0
1047 -1261 0
1050 -1261 0
1053 -1261 0
-1261 -1056 0
-1261 -1059 0
-1261 -1062 0
-1261 -1065 0
-1261 -1068 0
-1261 -1071 0
1074 -1261 0
-1261 -1077 0
-1261 -1080 0
-1261 -1083 0
1086 -1261 0
1089 -1261 0
1092 -1261 0
-1261 -1095 0
1098 -1261 0
1101 -1261 0
-1261 -1104 0
-1261 -1107 0
1110 -1261 0
-1261 -1113 0
-1261 -1116 0
1119 -1261 0
1122 -1261 0
1125 -1261 0
-1261 -1128 0
1131 -1261 0
-1261 -1134 0
1137 -1261 0
1140 -1261 0
1143 -1261 0
-1261 -1146 0
1149 -1261 0
1152 -1261 0
1155 -1261 0
-1261 -1158 0
-1261 -1161 0
1164 -1261 0
1167 -1261 0
-1261 -1170 0
1173 -1261 0
1176 -1261 0
1179 -1261 0
-1261 -1182 0
1185 -1261 0
1188 -1261 0
-1261 -1191 0
1194 -1261 0
-1261 -1197 0
-1261 -1200 0
1203 -1261 0
-1261 -1206 0
-1261 -1209 0
-1261 -1212 0
-1261 -1215 0
1218 -1261 0
1221 -1261 0
1224 -1261 0
-1261 -1227 0
1230 -1261 0
1233 -1261 0
-1261 -1236 0
1239 -1261 0
-1261 -1242 0
1245 -1261 0
-1261 -1248 0
1251 -1261 0
-1261 -1254 0
1257 -1261 0
1260 -1261 0
-1262 -738 0
-1262 -741 0
-1262 -744 0
747 -1262 0
-1262 -750 0
753 -1262 0
756 -1262 0
759 -1262 0
762 -1262 0
-1262 -765 0
-1262 -768 0
-1262 -771 0
-1262 -774 0
-1262 -777 0
780 -1262 0
783 -1262 0
786 -1262 0
-1262 -789 0
-1262 -792 0
-1262 -795 0
-1262 -798 0
-1262 -801 0
-1262 -804 0
-1262 -807 0
810 -1262 0
-1262 -813 0
816 -1262 0
819 -1262 0
-1262 -822 0
-1262 -825 0
828 -1262 0
-1262 -831 0
-1262 -834 0
-1262 -837 0
-1262 -840 0
-1262 -843 0
846 -1262 0
849 -1262 0
-1262 -852 0
-1262 -855 0
-1262 -858 0
861 -1262 0
864 -1262 0
-1262 -867 0
870 -1262 0
-1262 -873 0
-1262 -876 0
-1262 -879 0
-1262 -882 0
-1262 -885 0
888 -1262 0
891 -1262 0
894 -1262 0
-1262 -897 0
900 -1262 0
-1262 -903 0
-1262 -906 0
-1262 -909 0
-1262 -912 0
915 -1262 0
-1262 -918 0
-1262 -921 0
924 -1262 0
927 -1262 0
-1262 -930 0
933 -1262 0
936 -1262 0
939 -1262 0
-1262 -942 0
-1262 -945 0
-1262 -948 0
-1262 -951 0
954 -1262 0
-1262 -957 0
960 -1262 0
-1262 -963 0
966 -1262 0
969 -1262 0
-1262 -972 0
975 -1262 0
-1262 -978 0
-1262 -981 0
984 -1262 0
987 -1262 0
990 -1262 0
993 -1262 0
-1262 -996 0
999 -1262 0
-1262 -1002 0
-1262 -1005 0
-1262 -1008 0
1011 -1262 0
-1262 -1014 0
-1262 -1017 0
1020 -1262 0
-1262 -1023 0
1026 -1262 0
1029 -1262 0
1032 -1262 0
1035 -1262 0
1038 -1262 0
-1262 -1041 0
1044 -1262 0
1047 -1262 0
1050 -1262 0
1053 -1262 0
-1262 -1056 0
1059 -1262 0
-1262 -1062 0
1065 -1262 0
1068 -1262 0
1071 -1262 0
1074 -1262 0
-1262 -1077 0
1080 -1262 0
1083 -1262 0
-1262 -1086 0
-1262 -1089 0
-1262 -1092 0
1095 -1262 0
-1262 -1098 0
1101 -1262 0
-1262 -1104 0
-1262 -1107 0
1110 -1262 0
1113 -1262 0
1116 -1262 0
1119 -1262 0
1122 -1262 0
-1262 -1125 0
-1262 -1128 0
-1262 -1131 0
1134 -1262 0
-1262 -1137 0
-1262 -1140 0
1143 -1262 0
1146 -1262 0
1149 -1262 0
1152 -1262 0
-1262 -1155 0
1158 -1262 0
1161 -1262 0
1164 -1262 0
1167 -1262 0
1170 -1262 0
-1262 -1173 0
-1262 -1176 0
1179 -1262 0
-1262 -1182 0
1185 -1262 0
-1262 -1188 0
1191 -1262 0
-1262 -1194 0
-1262 -1197 0
1200 -1262 0
-1262 -1203 0
-1262 -1206 0
1209 -1262 0
1212 -1262 0
-1262 -1215 0
-1262 -1218 0
-1262 -1221 0
1224 -1262 0
-1262 -1227 0
-1262 -1230 0
-1262 -1233 0
1236 -1262 0
1239 -1262 0
-1262 -1242 0
-1262 -1245 0
1248 -1262 0
1251 -1262 0
-1262 -1254 0
-1262 -1257 0
1260 -1262 0
1261 1262 0
-1263 0
-1264 0
-1265 0
-1266 0
-1267 0
-1268 0
-1269 0
-1270 0
